% Problem from the book:
% Gyora Bededek: "Hidato: 2000 Pure Logic Puzzles"
% problem 3 (Beginner)
r = 6;
c = 6;
puzzle = array2d(1..r, 1..c,
   [
      0, 26,0,0,0,18,
      0,0,27,0,0,19,
      31,23,0,0,14,0,
      0,33,8,0,15,1,
      0,0,0,5,0,0,
      35,36,0,10,0,0
   ]);